0 0 0 0
0 1 0 0
0 2 0 0
0 3 0 3
0 4 0 12
0 5 0 8
0 6 0 10
0 7 0 3
0 8 0 6
0 9 1 5
0 10 0 12
0 11 0 14
0 12 0 10
0 13 0 11
0 14 0 7
0 15 2 13
0 16 0 8
0 17 0 17
0 18 0 22
0 19 1 17
0 20 0 18
0 21 2 12
0 22 0 13
0 23 0 24
0 24 1 17
0 25 0 25
0 26 0 27
0 27 0 19
0 28 0 25
0 29 0 29
0 30 0 26
0 31 0 32
